10 10 4

0 308 251 364 328 347 107 59 66 244 
284 0 460 390 152 114 268 63 99 238 
402 171 0 263 121 63 490 400 294 197 
123 425 422 0 92 439 379 407 266 226 
464 482 242 414 0 472 409 303 331 229 
70 344 279 466 452 0 156 435 72 169 
180 179 169 327 252 300 0 248 294 239 
126 200 211 58 370 400 251 0 490 371 
366 499 408 94 69 459 323 241 0 410 
185 382 189 304 61 318 180 338 69 0 

248.75 0 8
248.75 1 7
248.75 2 1
248.75 3 2
248.75 4 5
248.75 5 6
248.75 6 8
248.75 7 4
248.75 8 1
248.75 9 0

